(set-info :smt-lib-version 2.6)
(set-logic QF_NIA)
(set-info :source |
Generated by: Cristina Borralleras, Daniel Larraz, Albert Oliveras, Enric Rodriguez-Carbonell, Albert Rubio
Generated on: 2017-04-27
Generator: VeryMax
Application: Termination proving
Target solver: barcelogic
|)
(set-info :license "https://creativecommons.org/licenses/by/4.0/")
(set-info :category "industrial")
(set-info :status unsat)
(declare-fun Nl7arg11 () Int)
(declare-fun Nl7arg21 () Int)
(declare-fun Nl7arg31 () Int)
(declare-fun Nl7arg41 () Int)
(declare-fun Nl7arg51 () Int)
(declare-fun Nl7arg61 () Int)
(declare-fun Nl7arg71 () Int)
(declare-fun Nl8arg11 () Int)
(declare-fun Nl8arg21 () Int)
(declare-fun Nl8arg31 () Int)
(declare-fun Nl8arg41 () Int)
(declare-fun Nl8arg51 () Int)
(declare-fun Nl8arg61 () Int)
(declare-fun Nl8arg71 () Int)
(declare-fun lam0n0 () Int)
(declare-fun lam0n1 () Int)
(declare-fun lam0n2 () Int)
(declare-fun Nl7CT1 () Int)
(declare-fun lam1n0 () Int)
(declare-fun lam1n1 () Int)
(declare-fun lam1n2 () Int)
(declare-fun Nl8CT1 () Int)
(declare-fun lam2n0 () Int)
(declare-fun lam2n1 () Int)
(declare-fun lam2n2 () Int)
(declare-fun lam3n0 () Int)
(declare-fun lam3n1 () Int)
(declare-fun lam3n2 () Int)
(declare-fun lam4n0 () Int)
(declare-fun lam4n1 () Int)
(declare-fun lam4n2 () Int)
(declare-fun lam5n0 () Int)
(declare-fun lam5n1 () Int)
(declare-fun lam5n2 () Int)
(declare-fun lam6n0 () Int)
(declare-fun lam6n1 () Int)
(declare-fun lam6n2 () Int)
(declare-fun lam7n0 () Int)
(declare-fun lam7n1 () Int)
(declare-fun lam7n2 () Int)
(declare-fun lam8n0 () Int)
(declare-fun lam8n1 () Int)
(declare-fun lam8n2 () Int)
(declare-fun lam9n0 () Int)
(declare-fun lam9n1 () Int)
(declare-fun lam9n2 () Int)
(declare-fun lam10n0 () Int)
(declare-fun lam10n1 () Int)
(declare-fun lam10n2 () Int)
(declare-fun lam11n0 () Int)
(declare-fun lam11n1 () Int)
(declare-fun lam11n2 () Int)
(declare-fun lam12n0 () Int)
(declare-fun lam12n1 () Int)
(declare-fun lam12n2 () Int)
(declare-fun lam13n0 () Int)
(declare-fun lam13n1 () Int)
(declare-fun lam13n2 () Int)
(declare-fun lam14n0 () Int)
(declare-fun lam14n1 () Int)
(declare-fun lam14n2 () Int)
(declare-fun lam15n0 () Int)
(declare-fun lam15n1 () Int)
(declare-fun lam15n2 () Int)
(declare-fun lam16n0 () Int)
(declare-fun lam16n1 () Int)
(declare-fun lam16n2 () Int)
(declare-fun lam16n3 () Int)
(declare-fun lam16n4 () Int)
(declare-fun lam16n5 () Int)
(declare-fun lam16n6 () Int)
(declare-fun lam16n7 () Int)
(assert ( and ( <= ( - 2 ) Nl7arg11 ) ( <= Nl7arg11 2 ) ( <= ( - 2 ) Nl7arg21 ) ( <= Nl7arg21 2 ) ( <= ( - 2 ) Nl7arg31 ) ( <= Nl7arg31 2 ) ( <= ( - 2 ) Nl7arg41 ) ( <= Nl7arg41 2 ) ( <= ( - 2 ) Nl7arg51 ) ( <= Nl7arg51 2 ) ( <= ( - 2 ) Nl7arg61 ) ( <= Nl7arg61 2 ) ( <= ( - 2 ) Nl7arg71 ) ( <= Nl7arg71 2 ) ( <= ( - 2 ) Nl8arg11 ) ( <= Nl8arg11 2 ) ( <= ( - 2 ) Nl8arg21 ) ( <= Nl8arg21 2 ) ( <= ( - 2 ) Nl8arg31 ) ( <= Nl8arg31 2 ) ( <= ( - 2 ) Nl8arg41 ) ( <= Nl8arg41 2 ) ( <= ( - 2 ) Nl8arg51 ) ( <= Nl8arg51 2 ) ( <= ( - 2 ) Nl8arg61 ) ( <= Nl8arg61 2 ) ( <= ( - 2 ) Nl8arg71 ) ( <= Nl8arg71 2 ) ))
(assert ( or ( and ( >= lam0n0 0 ) ( >= lam0n1 0 ) ( >= lam0n2 0 ) ( > ( + ( * 1 lam0n0 ) ( * 1 lam0n1 ) ( * Nl7CT1 lam0n2 ) ( - 1 ) ) 0 ) ( = ( + ( * ( - 1 ) lam0n0 ) ( * Nl7arg11 lam0n2 ) ) 0 ) ( = ( + ( * 1 lam0n1 ) ( * Nl7arg21 lam0n2 ) ) 0 ) ( = ( + ( * ( - 1 ) lam0n1 ) ( * Nl7arg31 lam0n2 ) ) 0 ) ( = ( * Nl7arg41 lam0n2 ) 0 ) ( = ( * Nl7arg51 lam0n2 ) 0 ) ( = ( * Nl7arg61 lam0n2 ) 0 ) ( = ( * Nl7arg71 lam0n2 ) 0 ) ) ( and ( >= lam1n0 0 ) ( >= lam1n1 0 ) ( >= lam1n2 0 ) ( > ( + ( * 1 lam1n0 ) ( * 1 lam1n1 ) ( * Nl7CT1 lam1n2 ) ( - 1 ( + ( + ( + ( + ( + ( + Nl8CT1 ( * Nl8arg11 0 ) ) ( * Nl8arg31 2 ) ) ( * Nl8arg41 1 ) ) ( * Nl8arg51 0 ) ) ( * Nl8arg61 0 ) ) ( * Nl8arg71 0 ) ) ) ) 0 ) ( = ( + ( * ( - 1 ) lam1n0 ) ( * Nl7arg11 lam1n2 ) ( - ( + 0 ( * Nl8arg41 1 ) ) ) ) 0 ) ( = ( + ( * 1 lam1n1 ) ( * Nl7arg21 lam1n2 ) ( - ( + 0 Nl8arg21 ) ) ) 0 ) ( = ( + ( * ( - 1 ) lam1n1 ) ( * Nl7arg31 lam1n2 ) ( - ( + 0 ( * Nl8arg11 1 ) ) ) ) 0 ) ( = ( * Nl7arg41 lam1n2 ) 0 ) ( = ( * Nl7arg51 lam1n2 ) 0 ) ( = ( * Nl7arg61 lam1n2 ) 0 ) ( = ( * Nl7arg71 lam1n2 ) 0 ) ( = ( - ( + 0 ( * Nl8arg51 1 ) ) ) 0 ) ( = ( - ( + 0 ( * Nl8arg61 1 ) ) ) 0 ) ( = ( - ( + 0 ( * Nl8arg71 1 ) ) ) 0 ) ) ))
(assert ( or ( and ( >= lam2n0 0 ) ( >= lam2n1 0 ) ( >= lam2n2 0 ) ( > ( + ( * 1 lam2n0 ) ( * 1 lam2n1 ) ( * Nl8CT1 lam2n2 ) ( - 1 ) ) 0 ) ( = ( * Nl8arg11 lam2n2 ) 0 ) ( = ( * Nl8arg21 lam2n2 ) 0 ) ( = ( + ( * 1 lam2n0 ) ( * Nl8arg31 lam2n2 ) ) 0 ) ( = ( + ( * ( - 1 ) lam2n0 ) ( * ( - 1 ) lam2n1 ) ( * Nl8arg41 lam2n2 ) ) 0 ) ( = ( * Nl8arg51 lam2n2 ) 0 ) ( = ( * Nl8arg61 lam2n2 ) 0 ) ( = ( * Nl8arg71 lam2n2 ) 0 ) ) ( and ( >= lam3n0 0 ) ( >= lam3n1 0 ) ( >= lam3n2 0 ) ( > ( + ( * 1 lam3n0 ) ( * 1 lam3n1 ) ( * Nl8CT1 lam3n2 ) ( - 1 ( + ( + ( + ( + Nl8CT1 ( * Nl8arg31 1 ) ) ( * Nl8arg51 0 ) ) ( * Nl8arg61 0 ) ) ( * Nl8arg71 0 ) ) ) ) 0 ) ( = ( + ( * Nl8arg11 lam3n2 ) ( - ( + 0 Nl8arg11 ) ) ) 0 ) ( = ( + ( * Nl8arg21 lam3n2 ) ( - ( + 0 Nl8arg21 ) ) ) 0 ) ( = ( + ( * 1 lam3n0 ) ( * Nl8arg31 lam3n2 ) ( - ( + 0 ( * Nl8arg31 1 ) ) ) ) 0 ) ( = ( + ( * ( - 1 ) lam3n0 ) ( * ( - 1 ) lam3n1 ) ( * Nl8arg41 lam3n2 ) ( - ( + 0 Nl8arg41 ) ) ) 0 ) ( = ( * Nl8arg51 lam3n2 ) 0 ) ( = ( * Nl8arg61 lam3n2 ) 0 ) ( = ( * Nl8arg71 lam3n2 ) 0 ) ( = ( - ( + 0 ( * Nl8arg51 1 ) ) ) 0 ) ( = ( - ( + 0 ( * Nl8arg61 1 ) ) ) 0 ) ( = ( - ( + 0 ( * Nl8arg71 1 ) ) ) 0 ) ) ))
(assert ( or ( and ( >= lam4n0 0 ) ( >= lam4n1 0 ) ( >= lam4n2 0 ) ( > ( + ( * 1 lam4n0 ) ( * 1 lam4n1 ) ( * Nl8CT1 lam4n2 ) ( - 1 ) ) 0 ) ( = ( * Nl8arg11 lam4n2 ) 0 ) ( = ( * Nl8arg21 lam4n2 ) 0 ) ( = ( + ( * 1 lam4n0 ) ( * Nl8arg31 lam4n2 ) ) 0 ) ( = ( + ( * ( - 1 ) lam4n0 ) ( * ( - 1 ) lam4n1 ) ( * Nl8arg41 lam4n2 ) ) 0 ) ( = ( * Nl8arg51 lam4n2 ) 0 ) ( = ( * Nl8arg61 lam4n2 ) 0 ) ( = ( * Nl8arg71 lam4n2 ) 0 ) ) ( and ( >= lam5n0 0 ) ( >= lam5n1 0 ) ( >= lam5n2 0 ) ( > ( + ( * 1 lam5n0 ) ( * 1 lam5n1 ) ( * Nl8CT1 lam5n2 ) ( - 1 ( + ( + ( + ( + ( + ( + Nl7CT1 ( * Nl7arg11 0 ) ) ( * Nl7arg31 0 ) ) ( * Nl7arg41 0 ) ) ( * Nl7arg51 0 ) ) ( * Nl7arg61 0 ) ) ( * Nl7arg71 0 ) ) ) ) 0 ) ( = ( + ( * Nl8arg11 lam5n2 ) ( - ( + 0 ( * Nl7arg31 1 ) ) ) ) 0 ) ( = ( + ( * Nl8arg21 lam5n2 ) ( - ( + 0 Nl7arg21 ) ) ) 0 ) ( = ( + ( * 1 lam5n0 ) ( * Nl8arg31 lam5n2 ) ) 0 ) ( = ( + ( * ( - 1 ) lam5n0 ) ( * ( - 1 ) lam5n1 ) ( * Nl8arg41 lam5n2 ) ( - ( + 0 ( * Nl7arg11 1 ) ) ) ) 0 ) ( = ( * Nl8arg51 lam5n2 ) 0 ) ( = ( * Nl8arg61 lam5n2 ) 0 ) ( = ( * Nl8arg71 lam5n2 ) 0 ) ( = ( - ( + 0 ( * Nl7arg41 1 ) ) ) 0 ) ( = ( - ( + 0 ( * Nl7arg51 1 ) ) ) 0 ) ( = ( - ( + 0 ( * Nl7arg61 1 ) ) ) 0 ) ( = ( - ( + 0 ( * Nl7arg71 1 ) ) ) 0 ) ) ))
(assert ( or ( and ( >= lam6n0 0 ) ( >= lam6n1 0 ) ( >= lam6n2 0 ) ( > ( + ( * 1 lam6n0 ) ( * 1 lam6n1 ) ( * Nl8CT1 lam6n2 ) ( - 1 ) ) 0 ) ( = ( * Nl8arg11 lam6n2 ) 0 ) ( = ( * Nl8arg21 lam6n2 ) 0 ) ( = ( + ( * 1 lam6n0 ) ( * Nl8arg31 lam6n2 ) ) 0 ) ( = ( + ( * ( - 1 ) lam6n0 ) ( * ( - 1 ) lam6n1 ) ( * Nl8arg41 lam6n2 ) ) 0 ) ( = ( * Nl8arg51 lam6n2 ) 0 ) ( = ( * Nl8arg61 lam6n2 ) 0 ) ( = ( * Nl8arg71 lam6n2 ) 0 ) ) ( and ( >= lam7n0 0 ) ( >= lam7n1 0 ) ( >= lam7n2 0 ) ( > ( + ( * 1 lam7n0 ) ( * 1 lam7n1 ) ( * Nl8CT1 lam7n2 ) ( - 1 ( + ( + ( + ( + Nl8CT1 ( * Nl8arg31 1 ) ) ( * Nl8arg51 0 ) ) ( * Nl8arg61 0 ) ) ( * Nl8arg71 0 ) ) ) ) 0 ) ( = ( + ( * Nl8arg11 lam7n2 ) ( - ( + 0 Nl8arg11 ) ) ) 0 ) ( = ( + ( * Nl8arg21 lam7n2 ) ( - ( + 0 Nl8arg21 ) ) ) 0 ) ( = ( + ( * 1 lam7n0 ) ( * Nl8arg31 lam7n2 ) ( - ( + 0 ( * Nl8arg31 1 ) ) ) ) 0 ) ( = ( + ( * ( - 1 ) lam7n0 ) ( * ( - 1 ) lam7n1 ) ( * Nl8arg41 lam7n2 ) ( - ( + 0 Nl8arg41 ) ) ) 0 ) ( = ( * Nl8arg51 lam7n2 ) 0 ) ( = ( * Nl8arg61 lam7n2 ) 0 ) ( = ( * Nl8arg71 lam7n2 ) 0 ) ( = ( - ( + 0 ( * Nl8arg51 1 ) ) ) 0 ) ( = ( - ( + 0 ( * Nl8arg61 1 ) ) ) 0 ) ( = ( - ( + 0 ( * Nl8arg71 1 ) ) ) 0 ) ) ))
(assert ( or ( and ( >= lam8n0 0 ) ( >= lam8n1 0 ) ( >= lam8n2 0 ) ( > ( + ( * 1 lam8n0 ) ( * 1 lam8n1 ) ( * Nl8CT1 lam8n2 ) ( - 1 ) ) 0 ) ( = ( * Nl8arg11 lam8n2 ) 0 ) ( = ( * Nl8arg21 lam8n2 ) 0 ) ( = ( + ( * 1 lam8n0 ) ( * Nl8arg31 lam8n2 ) ) 0 ) ( = ( + ( * ( - 1 ) lam8n0 ) ( * ( - 1 ) lam8n1 ) ( * Nl8arg41 lam8n2 ) ) 0 ) ( = ( * Nl8arg51 lam8n2 ) 0 ) ( = ( * Nl8arg61 lam8n2 ) 0 ) ( = ( * Nl8arg71 lam8n2 ) 0 ) ) ( and ( >= lam9n0 0 ) ( >= lam9n1 0 ) ( >= lam9n2 0 ) ( > ( + ( * 1 lam9n0 ) ( * 1 lam9n1 ) ( * Nl8CT1 lam9n2 ) ( - 1 ( + ( + ( + ( + ( + ( + Nl7CT1 ( * Nl7arg11 0 ) ) ( * Nl7arg31 0 ) ) ( * Nl7arg41 0 ) ) ( * Nl7arg51 0 ) ) ( * Nl7arg61 0 ) ) ( * Nl7arg71 0 ) ) ) ) 0 ) ( = ( + ( * Nl8arg11 lam9n2 ) ( - ( + 0 ( * Nl7arg31 1 ) ) ) ) 0 ) ( = ( + ( * Nl8arg21 lam9n2 ) ( - ( + 0 Nl7arg21 ) ) ) 0 ) ( = ( + ( * 1 lam9n0 ) ( * Nl8arg31 lam9n2 ) ) 0 ) ( = ( + ( * ( - 1 ) lam9n0 ) ( * ( - 1 ) lam9n1 ) ( * Nl8arg41 lam9n2 ) ( - ( + 0 ( * Nl7arg11 1 ) ) ) ) 0 ) ( = ( * Nl8arg51 lam9n2 ) 0 ) ( = ( * Nl8arg61 lam9n2 ) 0 ) ( = ( * Nl8arg71 lam9n2 ) 0 ) ( = ( - ( + 0 ( * Nl7arg41 1 ) ) ) 0 ) ( = ( - ( + 0 ( * Nl7arg51 1 ) ) ) 0 ) ( = ( - ( + 0 ( * Nl7arg61 1 ) ) ) 0 ) ( = ( - ( + 0 ( * Nl7arg71 1 ) ) ) 0 ) ) ))
(assert ( or ( and ( >= lam10n0 0 ) ( >= lam10n1 0 ) ( >= lam10n2 0 ) ( > ( + ( * 1 lam10n0 ) ( * Nl8CT1 lam10n2 ) ( - 1 ) ) 0 ) ( = ( * Nl8arg11 lam10n2 ) 0 ) ( = ( * Nl8arg21 lam10n2 ) 0 ) ( = ( + ( * ( - 1 ) lam10n1 ) ( * Nl8arg31 lam10n2 ) ) 0 ) ( = ( + ( * ( - 1 ) lam10n0 ) ( * 1 lam10n1 ) ( * Nl8arg41 lam10n2 ) ) 0 ) ( = ( * Nl8arg51 lam10n2 ) 0 ) ( = ( * Nl8arg61 lam10n2 ) 0 ) ( = ( * Nl8arg71 lam10n2 ) 0 ) ) ( and ( >= lam11n0 0 ) ( >= lam11n1 0 ) ( >= lam11n2 0 ) ( > ( + ( * 1 lam11n0 ) ( * Nl8CT1 lam11n2 ) ( - 1 ( + ( + ( + ( + ( + ( + ( + Nl7CT1 ( * Nl7arg11 0 ) ) ( * Nl7arg21 1 ) ) ( * Nl7arg31 0 ) ) ( * Nl7arg41 0 ) ) ( * Nl7arg51 0 ) ) ( * Nl7arg61 0 ) ) ( * Nl7arg71 0 ) ) ) ) 0 ) ( = ( + ( * Nl8arg11 lam11n2 ) ( - ( + 0 ( * Nl7arg31 1 ) ) ) ) 0 ) ( = ( + ( * Nl8arg21 lam11n2 ) ( - ( + 0 ( * Nl7arg21 1 ) ) ) ) 0 ) ( = ( + ( * ( - 1 ) lam11n1 ) ( * Nl8arg31 lam11n2 ) ) 0 ) ( = ( + ( * ( - 1 ) lam11n0 ) ( * 1 lam11n1 ) ( * Nl8arg41 lam11n2 ) ( - ( + 0 ( * Nl7arg11 1 ) ) ) ) 0 ) ( = ( * Nl8arg51 lam11n2 ) 0 ) ( = ( * Nl8arg61 lam11n2 ) 0 ) ( = ( * Nl8arg71 lam11n2 ) 0 ) ( = ( - ( + 0 ( * Nl7arg41 1 ) ) ) 0 ) ( = ( - ( + 0 ( * Nl7arg51 1 ) ) ) 0 ) ( = ( - ( + 0 ( * Nl7arg61 1 ) ) ) 0 ) ( = ( - ( + 0 ( * Nl7arg71 1 ) ) ) 0 ) ) ))
(assert ( or ( and ( >= lam12n0 0 ) ( >= lam12n1 0 ) ( >= lam12n2 0 ) ( > ( + ( * 1 lam12n0 ) ( * 1 lam12n1 ) ( * Nl8CT1 lam12n2 ) ( - 1 ) ) 0 ) ( = ( * Nl8arg11 lam12n2 ) 0 ) ( = ( * Nl8arg21 lam12n2 ) 0 ) ( = ( + ( * 1 lam12n0 ) ( * Nl8arg31 lam12n2 ) ) 0 ) ( = ( + ( * ( - 1 ) lam12n0 ) ( * ( - 1 ) lam12n1 ) ( * Nl8arg41 lam12n2 ) ) 0 ) ( = ( * Nl8arg51 lam12n2 ) 0 ) ( = ( * Nl8arg61 lam12n2 ) 0 ) ( = ( * Nl8arg71 lam12n2 ) 0 ) ) ( and ( >= lam13n0 0 ) ( >= lam13n1 0 ) ( >= lam13n2 0 ) ( > ( + ( * 1 lam13n0 ) ( * 1 lam13n1 ) ( * Nl8CT1 lam13n2 ) ( - 1 ( + ( + ( + ( + Nl8CT1 ( * Nl8arg31 1 ) ) ( * Nl8arg51 0 ) ) ( * Nl8arg61 0 ) ) ( * Nl8arg71 0 ) ) ) ) 0 ) ( = ( + ( * Nl8arg11 lam13n2 ) ( - ( + 0 Nl8arg11 ) ) ) 0 ) ( = ( + ( * Nl8arg21 lam13n2 ) ( - ( + 0 Nl8arg21 ) ) ) 0 ) ( = ( + ( * 1 lam13n0 ) ( * Nl8arg31 lam13n2 ) ( - ( + 0 ( * Nl8arg31 1 ) ) ) ) 0 ) ( = ( + ( * ( - 1 ) lam13n0 ) ( * ( - 1 ) lam13n1 ) ( * Nl8arg41 lam13n2 ) ( - ( + 0 Nl8arg41 ) ) ) 0 ) ( = ( * Nl8arg51 lam13n2 ) 0 ) ( = ( * Nl8arg61 lam13n2 ) 0 ) ( = ( * Nl8arg71 lam13n2 ) 0 ) ( = ( - ( + 0 ( * Nl8arg51 1 ) ) ) 0 ) ( = ( - ( + 0 ( * Nl8arg61 1 ) ) ) 0 ) ( = ( - ( + 0 ( * Nl8arg71 1 ) ) ) 0 ) ) ))
(assert ( or ( and ( >= lam14n0 0 ) ( >= lam14n1 0 ) ( >= lam14n2 0 ) ( > ( + ( * 1 lam14n0 ) ( * 1 lam14n1 ) ( * Nl8CT1 lam14n2 ) ( - 1 ) ) 0 ) ( = ( * Nl8arg11 lam14n2 ) 0 ) ( = ( * Nl8arg21 lam14n2 ) 0 ) ( = ( + ( * 1 lam14n0 ) ( * Nl8arg31 lam14n2 ) ) 0 ) ( = ( + ( * ( - 1 ) lam14n0 ) ( * ( - 1 ) lam14n1 ) ( * Nl8arg41 lam14n2 ) ) 0 ) ( = ( * Nl8arg51 lam14n2 ) 0 ) ( = ( * Nl8arg61 lam14n2 ) 0 ) ( = ( * Nl8arg71 lam14n2 ) 0 ) ) ( and ( >= lam15n0 0 ) ( >= lam15n1 0 ) ( >= lam15n2 0 ) ( > ( + ( * 1 lam15n0 ) ( * 1 lam15n1 ) ( * Nl8CT1 lam15n2 ) ( - 1 ( + ( + ( + ( + ( + ( + Nl7CT1 ( * Nl7arg11 0 ) ) ( * Nl7arg31 0 ) ) ( * Nl7arg41 0 ) ) ( * Nl7arg51 0 ) ) ( * Nl7arg61 0 ) ) ( * Nl7arg71 0 ) ) ) ) 0 ) ( = ( + ( * Nl8arg11 lam15n2 ) ( - ( + 0 ( * Nl7arg31 1 ) ) ) ) 0 ) ( = ( + ( * Nl8arg21 lam15n2 ) ( - ( + 0 Nl7arg21 ) ) ) 0 ) ( = ( + ( * 1 lam15n0 ) ( * Nl8arg31 lam15n2 ) ) 0 ) ( = ( + ( * ( - 1 ) lam15n0 ) ( * ( - 1 ) lam15n1 ) ( * Nl8arg41 lam15n2 ) ( - ( + 0 ( * Nl7arg11 1 ) ) ) ) 0 ) ( = ( * Nl8arg51 lam15n2 ) 0 ) ( = ( * Nl8arg61 lam15n2 ) 0 ) ( = ( * Nl8arg71 lam15n2 ) 0 ) ( = ( - ( + 0 ( * Nl7arg41 1 ) ) ) 0 ) ( = ( - ( + 0 ( * Nl7arg51 1 ) ) ) 0 ) ( = ( - ( + 0 ( * Nl7arg61 1 ) ) ) 0 ) ( = ( - ( + 0 ( * Nl7arg71 1 ) ) ) 0 ) ) ))
(assert ( and ( >= lam16n0 0 ) ( >= lam16n1 0 ) ( >= lam16n2 0 ) ( >= lam16n3 0 ) ( >= lam16n4 0 ) ( >= lam16n5 0 ) ( >= lam16n6 0 ) ( >= lam16n7 0 ) ( > ( + ( * 1 lam16n0 ) ( * 1 lam16n1 ) ( * 1 lam16n2 ) ( * 1 lam16n3 ) ( * 1 lam16n4 ) ( * 2 lam16n5 ) ( * 2 lam16n6 ) ( * 2 lam16n7 ) ( - 1 ( + ( + ( + ( + ( + ( + ( + Nl7CT1 ( * Nl7arg11 1 ) ) ( * Nl7arg21 0 ) ) ( * Nl7arg31 0 ) ) ( * Nl7arg41 0 ) ) ( * Nl7arg51 0 ) ) ( * Nl7arg61 0 ) ) ( * Nl7arg71 0 ) ) ) ) 0 ) ( = ( * ( - 1 ) lam16n0 ) 0 ) ( = ( + ( * ( - 1 ) lam16n1 ) ( * ( - 1 ) lam16n5 ) ( * ( - 1 ) lam16n6 ) ) 0 ) ( = ( * 1 lam16n2 ) 0 ) ( = ( + ( * ( - 1 ) lam16n2 ) ( * ( - 1 ) lam16n3 ) ) 0 ) ( = ( * ( - 1 ) lam16n7 ) 0 ) ( = ( + ( * 1 lam16n5 ) ( - ( + 0 ( * Nl7arg31 1 ) ) ) ) 0 ) ( = ( + ( * ( - 1 ) lam16n4 ) ( * 1 lam16n6 ) ) 0 ) ( = ( - ( + 0 ( * Nl7arg41 1 ) ) ) 0 ) ( = ( - ( + 0 ( * Nl7arg51 1 ) ) ) 0 ) ( = ( - ( + 0 ( * Nl7arg61 1 ) ) ) 0 ) ( = ( - ( + 0 ( * Nl7arg71 1 ) ) ) 0 ) ))
(assert ( or ( and ( >= lam0n0 0 ) ( >= lam0n1 0 ) ( >= lam0n2 0 ) ( > ( + ( * 1 lam0n0 ) ( * 1 lam0n1 ) ( * Nl7CT1 lam0n2 ) ( - 1 ) ) 0 ) ( = ( + ( * ( - 1 ) lam0n0 ) ( * Nl7arg11 lam0n2 ) ) 0 ) ( = ( + ( * 1 lam0n1 ) ( * Nl7arg21 lam0n2 ) ) 0 ) ( = ( + ( * ( - 1 ) lam0n1 ) ( * Nl7arg31 lam0n2 ) ) 0 ) ( = ( * Nl7arg41 lam0n2 ) 0 ) ( = ( * Nl7arg51 lam0n2 ) 0 ) ( = ( * Nl7arg61 lam0n2 ) 0 ) ( = ( * Nl7arg71 lam0n2 ) 0 ) ) ( and ( >= lam2n0 0 ) ( >= lam2n1 0 ) ( >= lam2n2 0 ) ( > ( + ( * 1 lam2n0 ) ( * 1 lam2n1 ) ( * Nl8CT1 lam2n2 ) ( - 1 ) ) 0 ) ( = ( * Nl8arg11 lam2n2 ) 0 ) ( = ( * Nl8arg21 lam2n2 ) 0 ) ( = ( + ( * 1 lam2n0 ) ( * Nl8arg31 lam2n2 ) ) 0 ) ( = ( + ( * ( - 1 ) lam2n0 ) ( * ( - 1 ) lam2n1 ) ( * Nl8arg41 lam2n2 ) ) 0 ) ( = ( * Nl8arg51 lam2n2 ) 0 ) ( = ( * Nl8arg61 lam2n2 ) 0 ) ( = ( * Nl8arg71 lam2n2 ) 0 ) ) ( and ( >= lam4n0 0 ) ( >= lam4n1 0 ) ( >= lam4n2 0 ) ( > ( + ( * 1 lam4n0 ) ( * 1 lam4n1 ) ( * Nl8CT1 lam4n2 ) ( - 1 ) ) 0 ) ( = ( * Nl8arg11 lam4n2 ) 0 ) ( = ( * Nl8arg21 lam4n2 ) 0 ) ( = ( + ( * 1 lam4n0 ) ( * Nl8arg31 lam4n2 ) ) 0 ) ( = ( + ( * ( - 1 ) lam4n0 ) ( * ( - 1 ) lam4n1 ) ( * Nl8arg41 lam4n2 ) ) 0 ) ( = ( * Nl8arg51 lam4n2 ) 0 ) ( = ( * Nl8arg61 lam4n2 ) 0 ) ( = ( * Nl8arg71 lam4n2 ) 0 ) ) ( and ( >= lam6n0 0 ) ( >= lam6n1 0 ) ( >= lam6n2 0 ) ( > ( + ( * 1 lam6n0 ) ( * 1 lam6n1 ) ( * Nl8CT1 lam6n2 ) ( - 1 ) ) 0 ) ( = ( * Nl8arg11 lam6n2 ) 0 ) ( = ( * Nl8arg21 lam6n2 ) 0 ) ( = ( + ( * 1 lam6n0 ) ( * Nl8arg31 lam6n2 ) ) 0 ) ( = ( + ( * ( - 1 ) lam6n0 ) ( * ( - 1 ) lam6n1 ) ( * Nl8arg41 lam6n2 ) ) 0 ) ( = ( * Nl8arg51 lam6n2 ) 0 ) ( = ( * Nl8arg61 lam6n2 ) 0 ) ( = ( * Nl8arg71 lam6n2 ) 0 ) ) ( and ( >= lam8n0 0 ) ( >= lam8n1 0 ) ( >= lam8n2 0 ) ( > ( + ( * 1 lam8n0 ) ( * 1 lam8n1 ) ( * Nl8CT1 lam8n2 ) ( - 1 ) ) 0 ) ( = ( * Nl8arg11 lam8n2 ) 0 ) ( = ( * Nl8arg21 lam8n2 ) 0 ) ( = ( + ( * 1 lam8n0 ) ( * Nl8arg31 lam8n2 ) ) 0 ) ( = ( + ( * ( - 1 ) lam8n0 ) ( * ( - 1 ) lam8n1 ) ( * Nl8arg41 lam8n2 ) ) 0 ) ( = ( * Nl8arg51 lam8n2 ) 0 ) ( = ( * Nl8arg61 lam8n2 ) 0 ) ( = ( * Nl8arg71 lam8n2 ) 0 ) ) ( and ( >= lam10n0 0 ) ( >= lam10n1 0 ) ( >= lam10n2 0 ) ( > ( + ( * 1 lam10n0 ) ( * Nl8CT1 lam10n2 ) ( - 1 ) ) 0 ) ( = ( * Nl8arg11 lam10n2 ) 0 ) ( = ( * Nl8arg21 lam10n2 ) 0 ) ( = ( + ( * ( - 1 ) lam10n1 ) ( * Nl8arg31 lam10n2 ) ) 0 ) ( = ( + ( * ( - 1 ) lam10n0 ) ( * 1 lam10n1 ) ( * Nl8arg41 lam10n2 ) ) 0 ) ( = ( * Nl8arg51 lam10n2 ) 0 ) ( = ( * Nl8arg61 lam10n2 ) 0 ) ( = ( * Nl8arg71 lam10n2 ) 0 ) ) ( and ( >= lam12n0 0 ) ( >= lam12n1 0 ) ( >= lam12n2 0 ) ( > ( + ( * 1 lam12n0 ) ( * 1 lam12n1 ) ( * Nl8CT1 lam12n2 ) ( - 1 ) ) 0 ) ( = ( * Nl8arg11 lam12n2 ) 0 ) ( = ( * Nl8arg21 lam12n2 ) 0 ) ( = ( + ( * 1 lam12n0 ) ( * Nl8arg31 lam12n2 ) ) 0 ) ( = ( + ( * ( - 1 ) lam12n0 ) ( * ( - 1 ) lam12n1 ) ( * Nl8arg41 lam12n2 ) ) 0 ) ( = ( * Nl8arg51 lam12n2 ) 0 ) ( = ( * Nl8arg61 lam12n2 ) 0 ) ( = ( * Nl8arg71 lam12n2 ) 0 ) ) ( and ( >= lam14n0 0 ) ( >= lam14n1 0 ) ( >= lam14n2 0 ) ( > ( + ( * 1 lam14n0 ) ( * 1 lam14n1 ) ( * Nl8CT1 lam14n2 ) ( - 1 ) ) 0 ) ( = ( * Nl8arg11 lam14n2 ) 0 ) ( = ( * Nl8arg21 lam14n2 ) 0 ) ( = ( + ( * 1 lam14n0 ) ( * Nl8arg31 lam14n2 ) ) 0 ) ( = ( + ( * ( - 1 ) lam14n0 ) ( * ( - 1 ) lam14n1 ) ( * Nl8arg41 lam14n2 ) ) 0 ) ( = ( * Nl8arg51 lam14n2 ) 0 ) ( = ( * Nl8arg61 lam14n2 ) 0 ) ( = ( * Nl8arg71 lam14n2 ) 0 ) ) ))
(check-sat)
(exit)
